letting np_cars_plus be 176
letting np_classes be 58
letting np_options be 188
letting quantity_range_min be 3
letting quantity_range_delta be 17
letting maxcars_range_min be 1
letting maxcars_range_delta be 1
letting blksize_delta_range_min be 10
letting blksize_delta_range_delta be 7
letting usage_card_min be 835
letting usage_card_delta be 49